10,9	0,0	17,9	6,2	0,0	0,0	0,0	0,0	0,0	19,7
6,6	17,4	0,0	7,3	5,6	0,0	0,0	16,8	0,0	0,0
0,0	0,0	9,8	0,0	19,4	5,7	0,0	0,0	16,7	0,0
11,7	0,0	9,3	0,0	0,0	0,0	10,0	0,0	0,0	0,0
0,0	14,0	0,0	7,0	19,8	0,0	0,0	9,3	0,0	0,0
0,0	14,5	17,2	0,0	13,0	6,4	0,0	0,0	8,5	0,0
0,0	7,1	0,0	19,9	0,0	0,0	13,9	0,0	0,0	18,7
14,4	0,0	9,4	0,0	0,0	0,0	0,0	0,0	0,0	5,1
0,0	17,2	0,0	10,9	7,3	0,0	0,0	11,0	0,0	0,0
0,0	0,0	11,3	0,0	0,0	15,6	17,5	0,0	0,0	14,4
									
4,8	2,6	4,5	4,9	4,6	4,0	3,4	4,6	2,7	3,1
